p tw 179 193
1 2
2 92
3 14
4 5
5 6
6 7
7 8
7 20
8 9
9 10
10 11
11 12
11 17
12 13
13 15
14 25
15 16
16 17
16 20
17 18
18 19
19 22
20 21
21 22
22 23
23 24
24 26
25 36
26 176
27 28
28 29
29 30
30 31
31 32
32 33
33 34
34 35
35 37
36 47
37 38
38 39
39 40
40 41
40 52
41 42
42 43
43 44
44 45
45 46
45 55
46 48
47 58
48 49
49 50
50 51
51 52
51 55
52 53
53 54
54 57
55 56
56 57
57 59
58 69
59 60
60 61
61 62
62 63
63 64
64 65
65 66
66 67
67 68
68 70
68 78
69 80
70 71
71 72
72 73
73 74
74 75
75 76
76 77
77 63
78 79
79 81
80 90
80 94
81 82
82 83
83 84
84 85
85 86
86 87
87 88
88 89
90 91
91 93
92 103
93 58
94 95
95 96
96 97
97 98
98 99
99 100
99 104
100 101
101 102
102 97
103 114
104 105
105 106
106 107
107 108
108 109
109 110
110 111
111 112
112 113
113 115
114 125
115 116
116 117
117 118
118 119
119 120
120 121
121 122
122 123
123 124
124 126
125 136
126 127
127 128
128 129
129 130
130 131
131 132
132 133
133 134
134 135
135 137
136 147
137 138
138 139
139 140
140 141
140 143
141 142
142 143
143 144
144 145
145 146
146 148
147 158
148 149
149 150
150 151
150 163
151 152
152 153
153 154
154 155
154 160
155 156
156 157
157 159
158 169
159 160
159 163
160 161
161 162
162 165
163 164
164 165
165 166
166 167
167 168
168 170
169 3
170 171
170 174
171 172
172 173
173 145
174 175
175 176
176 177
177 178
178 179
178 27
179 4
